c FILE: i080-003

c SOURCE: From steinlib

c DESCRIPTION: Steinlib instance with 80 nodes and 120 edges.

p edge 80 120
e 1 7
e 1 26
e 1 30
e 1 47
e 1 56
e 1 63
e 1 64
e 1 67
e 2 41
e 3 56
e 3 61
e 3 70
e 4 40
e 5 7
e 5 62
e 5 68
e 6 11
e 6 14
e 6 20
e 6 30
e 6 56
e 6 71
e 7 8
e 7 12
e 7 14
e 7 21
e 7 30
e 7 39
e 7 49
e 7 78
e 7 79
e 8 26
e 8 33
e 8 42
e 8 78
e 9 35
e 9 54
e 10 66
e 10 70
e 10 71
e 11 62
e 11 65
e 11 71
e 11 72
e 12 14
e 13 63
e 13 73
e 14 45
e 14 52
e 14 62
e 15 57
e 15 73
e 16 38
e 16 75
e 17 67
e 18 62
e 19 47
e 19 56
e 20 44
e 20 59
e 20 61
e 21 70
e 22 52
e 22 79
e 23 28
e 23 30
e 23 61
e 24 53
e 24 58
e 25 40
e 26 53
e 26 68
e 26 69
e 26 80
e 27 40
e 28 51
e 28 67
e 29 75
e 29 78
e 31 48
e 32 55
e 32 66
e 34 53
e 34 64
e 35 56
e 35 74
e 36 41
e 36 67
e 36 77
e 37 79
e 38 44
e 38 47
e 38 49
e 39 74
e 40 46
e 40 56
e 41 43
e 41 61
e 42 48
e 42 49
e 42 65
e 42 72
e 43 50
e 43 55
e 43 56
e 43 64
e 44 58
e 45 66
e 45 69
e 46 67
e 47 57
e 51 61
e 53 60
e 59 67
e 59 76
e 60 74
e 62 70
e 65 76
e 70 76
e 73 77
